set Nodos:= A B M N O P Q R;
set Arcos:=
A M
A N
A O
B M
B O
M P
M Q
N Q
N R
O P
O R;

param Costo:=
A M 310
A N 280
A O 260
B M 270
B O 285
M P 310
M Q 320
N Q 335
N R 350
O P 300
O R 340;

param: Suministro:=
A 2500
B 2000;

param Demanda:=
M 700
N 650
O 550
P 6
Q 750
R 920;